Route #1: 5 30 54 27 3 42 1 
Route #2: 51 59 55 35 11 49 25 60 34 53 
Route #3: 13 56 19 52 28 15 
Route #4: 12 31 4 21 41 23 39 46 38 
Route #5: 10 40 6 43 8 61 29 
Route #6: 26 33 58 50 17 57 32 
Route #7: 7 20 48 14 18 2 22 37 36 
Route #8: 16 44 45 47 24 9 
cost 1615.79
execution_time 25.339
